Figure: medium_5
File Number: 8
Nodes: 100
Edges: 2527
Max Generations: 1000
Population Size: 100
Mutation Rate: 0.01
Colors Used: 23
Runtime: 6.87

Generation,Average Fitness,Best Fitness
0,112.67,84
1,107.95,84
2,108.5,81
3,105.44,78
4,102.76,77
5,102.5,77
6,101.52,77
7,99.76,77
8,97.88,75
9,92.96,74
10,89.8,74
11,86.34,74
12,82.95,72
13,83.26,72
14,83.42,71
15,81.81,70
16,82.66,69
17,81.29,69
18,80.18,69
19,78.49,69
20,77.43,68
21,76.58,68
22,76.33,66
23,74.86,66
24,74.1,65
25,73.2,65
26,72.03,65
27,70.63,62
28,69.03,62
29,68.1,57
30,66.76,57
31,65.68,57
32,64.68,53
33,62.8,53
34,61.23,53
35,59.72,52
36,59.0,52
37,57.89,50
38,57.95,50
39,58.39,50
40,57.06,49
41,55.8,48
42,55.29,47
43,54.63,47
44,54.59,47
45,54.44,45
46,53.86,45
47,53.3,44
48,52.6,44
49,52.42,44
50,52.15,44
51,51.61,43
52,51.23,43
53,51.1,43
54,50.41,43
55,49.83,43
56,49.68,42
57,49.06,41
58,48.91,41
59,48.14,41
60,47.46,41
61,46.65,39
62,46.24,39
63,45.83,39
64,45.72,38
65,45.5,38
66,44.85,38
67,44.82,38
68,44.23,36
69,44.17,35
70,43.38,35
71,41.96,35
72,41.74,34
73,41.25,34
74,41.1,33
75,41.03,33
76,40.61,33
77,39.89,32
78,38.85,30
79,38.84,29
80,37.96,29
81,37.17,29
82,37.01,29
83,36.45,29
84,36.57,28
85,35.9,28
86,35.76,28
87,35.29,27
88,34.7,26
89,34.93,26
90,35.22,26
91,34.78,26
92,34.22,26
93,33.31,25
94,32.76,25
95,33.06,25
96,32.84,25
97,32.82,25
98,32.68,25
99,31.79,25
100,31.68,25
101,31.23,25
102,30.91,25
103,31.42,24
104,30.0,24
105,30.43,23
106,29.92,23
107,30.34,23
108,30.44,23
109,30.05,23
110,30.05,23
111,29.72,22
112,29.07,22
113,28.77,22
114,28.44,22
115,28.52,21
116,28.63,21
117,27.72,21
118,27.35,21
119,27.42,21
120,27.27,20
121,27.04,20
122,26.8,19
123,26.04,19
124,25.49,19
125,25.73,19
126,25.66,19
127,24.88,18
128,24.45,18
129,24.68,18
130,24.96,18
131,24.2,18
132,24.4,17
133,23.75,17
134,23.99,17
135,23.82,17
136,23.51,17
137,23.74,17
138,23.4,17
139,23.39,17
140,22.99,17
141,22.92,17
142,22.51,17
143,22.41,17
144,22.5,16
145,22.39,16
146,22.66,16
147,22.59,16
148,22.46,16
149,22.87,16
150,22.5,16
151,22.65,16
152,22.24,16
153,22.51,16
154,22.54,16
155,22.2,15
156,21.49,14
157,22.37,14
158,22.28,14
159,22.2,14
160,21.93,14
161,21.39,13
162,21.17,13
163,21.04,13
164,21.01,13
165,21.13,13
166,21.73,13
167,21.89,13
168,20.85,13
169,20.08,12
170,19.48,12
171,18.84,12
172,19.06,12
173,19.0,12
174,19.58,12
175,19.43,12
176,18.31,12
177,18.22,12
178,17.86,12
179,18.14,12
180,17.68,12
181,17.28,12
182,17.81,12
183,18.15,12
184,18.05,12
185,17.74,11
186,17.43,11
187,17.68,11
188,18.16,11
189,18.82,11
190,18.08,11
191,18.19,10
192,18.26,10
193,18.49,10
194,18.09,10
195,18.1,10
196,18.69,10
197,18.65,10
198,18.84,10
199,18.81,10
200,18.48,10
201,17.78,10
202,17.49,10
203,15.77,9
204,15.6,9
205,15.51,9
206,15.88,9
207,15.8,9
208,16.33,9
209,15.7,9
210,14.83,8
211,14.58,8
212,14.7,8
213,14.86,8
214,14.66,8
215,14.88,8
216,15.37,8
217,14.94,8
218,15.07,8
219,14.92,8
220,14.44,8
221,14.28,8
222,14.17,8
223,15.01,8
224,15.08,8
225,15.21,8
226,14.47,8
227,14.54,8
228,13.58,8
229,13.61,8
230,13.6,8
231,14.06,8
232,14.27,8
233,14.55,8
234,14.23,8
235,13.98,8
236,14.2,8
237,14.11,8
238,13.96,8
239,14.03,8
240,13.99,8
241,13.78,8
242,13.44,8
243,13.31,8
244,13.04,8
245,13.4,8
246,12.83,8
247,13.04,8
248,13.04,8
249,13.91,8
250,14.01,8
251,14.23,8
252,13.83,8
253,13.92,7
254,12.79,7
255,13.7,7
256,14.06,7
257,13.68,7
258,13.64,7
259,13.47,7
260,13.82,7
261,13.54,7
262,13.38,7
263,13.34,7
264,13.32,7
265,13.55,6
266,13.35,6
267,13.38,6
268,14.37,6
269,14.28,6
270,13.91,6
271,13.45,6
272,13.4,6
273,12.93,6
274,13.3,6
275,13.41,6
276,13.03,6
277,12.35,6
278,12.52,6
279,12.36,6
280,12.42,6
281,13.24,6
282,13.12,6
283,13.45,6
284,13.26,6
285,13.29,6
286,13.06,6
287,12.74,6
288,12.25,6
289,12.19,6
290,12.36,6
291,12.46,6
292,11.68,6
293,11.5,6
294,11.39,6
295,11.27,6
296,11.65,6
297,11.6,6
298,12.34,6
299,11.73,5
300,10.69,5
301,10.68,5
302,10.02,5
303,10.07,5
304,10.57,5
305,11.29,5
306,11.32,5
307,11.36,5
308,11.62,5
309,11.47,5
310,11.07,5
311,10.8,5
312,11.39,5
313,11.29,5
314,10.53,5
315,10.79,5
316,10.65,5
317,10.93,5
318,10.39,5
319,10.09,5
320,10.81,5
321,10.41,5
322,10.54,5
323,10.29,5
324,10.15,5
325,10.5,5
326,11.05,5
327,11.09,5
328,11.42,5
329,11.42,5
330,11.66,5
331,11.57,5
332,11.44,5
333,10.85,5
334,10.36,5
335,10.38,5
336,10.87,5
337,11.15,5
338,10.92,5
339,11.42,5
340,11.44,5
341,12.57,5
342,12.23,5
343,11.92,5
344,11.62,4
345,12.41,4
346,12.95,4
347,13.58,4
348,11.87,4
349,11.82,4
350,11.98,4
351,11.92,4
352,12.08,4
353,11.49,4
354,11.64,4
355,11.4,4
356,11.12,4
357,10.78,4
358,10.98,4
359,11.45,4
360,10.74,4
361,11.09,4
362,10.68,4
363,10.71,4
364,10.07,4
365,10.46,4
366,10.59,4
367,10.5,4
368,10.53,4
369,10.66,4
370,10.63,4
371,10.38,4
372,10.81,4
373,10.57,4
374,10.0,4
375,10.17,4
376,10.02,4
377,10.13,4
378,9.87,4
379,10.48,4
380,10.54,4
381,10.67,4
382,11.21,4
383,11.59,4
384,11.73,4
385,11.3,4
386,10.94,4
387,10.99,4
388,10.84,4
389,11.21,4
390,11.2,4
391,11.53,4
392,12.01,4
393,12.02,4
394,11.4,4
395,11.32,4
396,11.29,4
397,11.2,4
398,10.31,4
399,10.78,4
400,10.52,4
401,10.57,4
402,10.82,4
403,10.51,4
404,10.73,4
405,10.68,4
406,10.77,4
407,9.95,4
408,10.78,4
409,10.27,4
410,10.11,4
411,10.87,4
412,10.65,4
413,10.75,4
414,10.69,4
415,10.71,4
416,10.42,4
417,10.54,4
418,10.54,4
419,10.42,4
420,10.8,4
421,10.46,4
422,9.97,4
423,9.68,4
424,9.91,4
425,10.18,4
426,10.11,4
427,10.16,4
428,11.1,4
429,10.67,4
430,10.65,4
431,10.14,4
432,10.19,4
433,10.09,4
434,9.55,4
435,9.32,4
436,9.36,4
437,9.97,4
438,9.94,4
439,9.4,4
440,9.77,4
441,9.61,4
442,9.7,4
443,9.45,4
444,9.37,4
445,9.12,4
446,9.01,4
447,8.73,4
448,10.0,4
449,9.76,4
450,10.2,4
451,10.49,4
452,10.45,4
453,10.05,4
454,9.77,4
455,10.15,4
456,10.13,4
457,10.3,4
458,9.97,4
459,9.97,4
460,9.78,4
461,9.17,4
462,9.1,4
463,9.25,4
464,9.5,4
465,9.99,4
466,10.74,4
467,11.06,4
468,10.88,4
469,10.51,4
470,10.44,4
471,10.2,4
472,9.79,4
473,10.28,4
474,9.58,4
475,10.0,4
476,10.39,4
477,9.65,4
478,9.11,4
479,8.77,4
480,9.43,4
481,9.61,4
482,10.16,4
483,11.18,4
484,10.6,4
485,10.62,4
486,10.16,4
487,10.29,4
488,10.54,4
489,9.7,4
490,9.7,4
491,9.96,4
492,10.18,4
493,9.9,4
494,9.74,4
495,9.7,4
496,9.16,4
497,9.53,4
498,9.49,4
499,9.31,4
500,9.45,4
501,10.13,4
502,9.32,4
503,9.91,4
504,9.53,4
505,9.49,4
506,9.62,4
507,9.69,4
508,9.81,4
509,10.45,4
510,10.37,4
511,10.37,4
512,11.12,4
513,10.65,4
514,10.29,4
515,10.43,4
516,11.0,4
517,10.21,4
518,10.37,4
519,10.75,4
520,11.42,4
521,11.14,4
522,10.72,4
523,10.03,4
524,9.81,4
525,10.05,4
526,10.4,4
527,10.95,4
528,10.44,4
529,10.78,4
530,11.03,4
531,11.09,4
532,11.44,4
533,11.3,4
534,11.62,4
535,11.57,4
536,12.2,4
537,12.28,4
538,11.69,4
539,11.52,4
540,11.48,4
541,10.96,4
542,11.49,4
543,10.69,4
544,10.94,4
545,11.16,4
546,11.43,4
547,11.83,4
548,11.66,4
549,11.27,4
550,11.32,4
551,11.73,4
552,11.55,4
553,11.73,4
554,11.32,4
555,11.31,4
556,11.54,4
557,11.65,4
558,10.96,4
559,10.74,4
560,10.33,4
561,10.66,4
562,10.86,4
563,10.04,4
564,10.0,4
565,9.49,4
566,9.79,4
567,10.53,4
568,9.82,4
569,9.98,4
570,9.79,4
571,9.47,4
572,9.12,4
573,10.06,4
574,9.88,4
575,10.23,4
576,10.09,4
577,10.6,4
578,10.69,4
579,10.82,4
580,11.18,4
581,10.77,4
582,10.58,4
583,10.56,4
584,11.05,4
585,11.2,4
586,10.06,4
587,10.31,4
588,9.94,4
589,9.78,4
590,9.99,4
591,10.09,4
592,10.1,4
593,10.21,4
594,10.59,4
595,10.72,4
596,10.69,4
597,10.56,4
598,10.98,4
599,11.29,4
600,11.36,4
601,11.52,4
602,11.35,4
603,11.3,4
604,11.15,4
605,11.61,4
606,11.6,4
607,11.35,4
608,11.0,4
609,11.01,4
610,11.21,4
611,10.29,4
612,9.9,4
613,9.65,4
614,10.1,4
615,10.21,4
616,10.28,4
617,9.91,4
618,9.49,4
619,9.43,4
620,9.56,4
621,10.11,4
622,10.46,4
623,10.41,4
624,10.22,4
625,10.41,4
626,10.55,4
627,10.69,4
628,11.17,4
629,10.89,4
630,10.77,4
631,9.96,4
632,9.95,4
633,10.52,4
634,10.58,4
635,11.25,4
636,11.62,4
637,11.54,4
638,11.78,4
639,11.64,4
640,11.85,4
641,11.7,4
642,11.29,4
643,11.3,4
644,11.52,4
645,11.37,4
646,11.64,4
647,11.64,4
648,11.21,4
649,10.62,4
650,10.34,4
651,10.53,4
652,10.44,4
653,9.48,4
654,9.58,4
655,8.89,4
656,9.16,4
657,10.73,4
658,10.23,4
659,10.03,4
660,9.91,4
661,10.45,4
662,10.59,4
663,10.99,4
664,10.38,4
665,10.6,4
666,10.37,4
667,10.42,4
668,10.45,4
669,10.42,4
670,10.55,4
671,10.48,4
672,10.28,4
673,9.78,4
674,9.4,4
675,9.46,4
676,9.02,4
677,9.21,4
678,9.32,4
679,9.24,4
680,9.47,4
681,9.91,4
682,9.88,4
683,9.67,4
684,9.87,4
685,10.34,4
686,10.71,4
687,10.61,4
688,10.58,4
689,11.07,4
690,11.08,4
691,10.88,4
692,10.67,4
693,10.55,4
694,10.9,4
695,11.33,4
696,11.56,4
697,11.11,4
698,10.67,4
699,10.51,4
700,10.0,4
701,10.08,4
702,11.43,3
703,11.2,3
704,10.72,3
705,10.19,3
706,10.28,3
707,10.34,3
708,9.95,3
709,9.49,3
710,9.43,3
711,9.21,3
712,8.91,3
713,8.92,3
714,9.22,3
715,8.73,3
716,9.21,3
717,8.85,3
718,9.02,3
719,8.6,3
720,9.07,3
721,9.1,3
722,8.81,3
723,8.92,3
724,9.38,3
725,9.1,3
726,9.49,3
727,9.42,3
728,8.67,3
729,8.24,3
730,8.55,3
731,8.43,3
732,8.49,3
733,8.31,3
734,8.44,3
735,8.58,3
736,8.77,3
737,8.96,3
738,8.79,3
739,9.16,3
740,8.83,3
741,8.88,3
742,9.64,3
743,9.57,3
744,9.44,3
745,9.72,3
746,9.88,3
747,10.41,3
748,10.32,3
749,9.82,3
750,9.53,3
751,9.9,3
752,10.38,3
753,10.67,3
754,11.21,3
755,10.87,3
756,10.27,3
757,10.3,3
758,10.12,3
759,10.12,3
760,9.92,3
761,10.1,3
762,10.03,3
763,10.21,3
764,10.43,3
765,10.55,3
766,10.56,3
767,10.65,3
768,10.65,3
769,10.65,3
770,10.94,3
771,10.81,3
772,10.37,3
773,10.35,3
774,10.86,3
775,10.34,3
776,10.59,3
777,10.29,3
778,9.7,3
779,10.08,3
780,9.28,3
781,9.48,3
782,9.79,3
783,9.53,3
784,9.78,3
785,9.43,3
786,9.01,3
787,8.79,3
788,8.97,3
789,9.71,3
790,9.85,3
791,9.99,3
792,9.62,3
793,9.46,3
794,9.6,3
795,9.92,3
796,9.87,3
797,9.6,3
798,9.47,2
799,9.46,2
800,9.8,2
801,8.54,2
802,9.0,2
803,9.77,2
804,9.71,2
805,9.97,2
806,9.95,2
807,9.81,2
808,9.81,2
809,9.74,2
810,9.7,2
811,9.61,2
812,9.66,2
813,9.34,2
814,9.44,2
815,9.92,2
816,9.67,2
817,9.4,2
818,9.77,2
819,9.62,2
820,8.79,2
821,8.38,2
822,8.19,2
823,7.98,2
824,8.08,2
825,7.9,2
826,8.82,2
827,8.29,2
828,8.65,2
829,8.65,2
830,8.58,2
831,8.61,2
832,8.58,2
833,8.77,2
834,8.5,2
835,8.67,2
836,9.01,2
837,8.98,2
838,7.78,2
839,7.41,2
840,7.8,2
841,7.83,2
842,7.37,2
843,7.04,2
844,6.95,2
845,7.52,2
846,8.25,2
847,8.09,2
848,7.99,2
849,8.53,2
850,8.87,2
851,8.59,2
852,8.96,2
853,8.87,2
854,8.79,2
855,9.06,2
856,9.24,2
857,9.39,2
858,8.68,2
859,8.46,2
860,8.33,2
861,8.34,2
862,8.35,2
863,8.85,2
864,8.47,2
865,8.24,2
866,8.35,2
867,8.82,2
868,8.99,2
869,8.39,2
870,8.82,2
871,9.12,2
872,8.96,2
873,9.08,2
874,9.61,2
875,9.68,2
876,9.64,2
877,9.52,2
878,9.19,2
879,9.27,2
880,8.29,2
881,7.91,2
882,8.49,2
883,8.49,2
884,8.28,2
885,8.17,2
886,8.06,2
887,8.79,2
888,8.9,2
889,9.24,2
890,8.87,2
891,8.44,2
892,8.73,2
893,8.19,2
894,8.37,2
895,8.32,2
896,8.1,2
897,7.84,2
898,7.72,2
899,8.21,2
900,8.03,2
901,7.99,2
902,7.85,2
903,7.85,2
904,7.84,2
905,8.18,2
906,7.55,2
907,7.7,2
908,7.39,2
909,7.04,2
910,7.19,2
911,7.33,2
912,7.54,2
913,7.54,2
914,7.38,2
915,6.8,2
916,6.94,2
917,6.86,2
918,7.25,2
919,6.92,2
920,6.97,2
921,7.31,2
922,7.76,2
923,7.68,2
924,7.61,2
925,7.86,2
926,8.13,2
927,7.57,2
928,7.34,2
929,7.49,2
930,8.49,2
931,9.25,2
932,8.75,2
933,9.01,2
934,8.67,2
935,8.7,2
936,8.45,2
937,8.36,2
938,8.07,2
939,8.83,2
940,8.61,2
941,8.66,2
942,9.54,2
943,9.21,2
944,8.85,2
945,9.0,2
946,8.43,2
947,8.06,2
948,8.05,2
949,8.19,2
950,8.66,2
951,8.62,2
952,8.05,2
953,7.7,2
954,7.52,2
955,7.13,2
956,6.98,2
957,7.58,2
958,7.49,2
959,7.84,2
960,7.49,2
961,7.38,2
962,7.4,2
963,7.98,2
964,7.87,2
965,7.85,2
966,8.26,2
967,7.93,2
968,8.22,2
969,7.95,2
970,7.72,2
971,8.15,2
972,8.33,2
973,8.25,2
974,8.78,2
975,8.49,2
976,7.69,2
977,7.37,2
978,7.59,2
979,7.94,2
980,8.59,2
981,8.37,2
982,8.15,2
983,8.54,2
984,9.9,2
985,9.67,2
986,9.2,2
987,8.95,2
988,8.21,2
989,8.46,2
990,8.06,2
991,8.11,2
992,7.97,2
993,7.67,2
994,7.89,2
995,8.35,2
996,8.29,2
997,8.62,2
998,8.74,2
999,9.17,2
